\ SCIP STATISTICS
\   Problem name     : SetCover-150-225
\   Variables        : 225 (225 binary, 0 integer, 0 implicit integer, 0 continuous)
\   Constraints      : 150
Minimize
 Obj: +74 x0 +40 x1 +37 x2 +18 x3 +35 x4 +17 x5 +7 x6 +4 x7 +26 x8 +31 x9 +78 x10 +55 x11 +56 x12 +18 x13
      +59 x14 +51 x15 +84 x16 +6 x17 +60 x18 +13 x19 +28 x20 +83 x21 +40 x22 +73 x23 +13 x24 +31 x25 +28 x26
      +49 x27 +50 x28 +89 x29 +100 x30 +74 x31 +93 x32 +65 x33 +59 x34 +94 x35 +85 x36 +42 x37 +29 x38
      +89 x39 +58 x40 +49 x41 +45 x42 +18 x43 +87 x44 +97 x45 +94 x46 +45 x47 +98 x48 +61 x49 +85 x50
      +97 x51 +68 x52 +67 x53 +1 x54 +45 x55 +40 x56 +29 x57 +65 x58 +68 x59 +16 x60 +42 x61 +45 x62 +61 x63
      +74 x64 +98 x65 +74 x66 +47 x67 +89 x68 +34 x69 +21 x70 +94 x71 +68 x72 +29 x73 +14 x74 +81 x75
      +70 x76 +43 x77 +33 x78 +92 x79 +78 x80 +54 x81 +11 x82 +89 x83 +79 x84 +22 x85 +38 x86 +41 x87
      +75 x88 +85 x89 +23 x90 +75 x91 +24 x92 +41 x93 +58 x94 +63 x95 +29 x96 +39 x97 +51 x98 +36 x99
      +92 x100 +66 x101 +38 x102 +98 x103 +25 x104 +12 x105 +100 x106 +29 x107 +76 x108 +100 x109 +94 x110
      +61 x111 +68 x112 +19 x113 +18 x114 +24 x115 +36 x116 +3 x117 +12 x118 +50 x119 +83 x120 +51 x121
      +8 x122 +72 x123 +63 x124 +78 x125 +54 x126 +53 x127 +15 x128 +85 x129 +94 x130 +69 x131 +21 x132
      +20 x133 +35 x134 +83 x135 +44 x136 +44 x137 +23 x138 +50 x139 +41 x140 +62 x141 +36 x142 +7 x143
      +90 x144 +44 x145 +9 x146 +82 x147 +56 x148 +33 x149 +98 x150 +44 x151 +29 x152 +49 x153 +12 x154
      +41 x155 +96 x156 +96 x157 +20 x158 +71 x159 +69 x160 +64 x161 +22 x162 +90 x163 +2 x164 +36 x165
      +43 x166 +10 x167 +14 x168 +52 x169 +22 x170 +19 x171 +9 x172 +8 x173 +72 x174 +66 x175 +38 x176
      +57 x177 +54 x178 +39 x179 +15 x180 +46 x181 +17 x182 +46 x183 +68 x184 +89 x185 +39 x186 +3 x187
      +48 x188 +31 x189 +25 x190 +73 x191 +96 x192 +63 x193 +66 x194 +68 x195 +28 x196 +84 x197 +47 x198
      +76 x199 +89 x200 +81 x201 +91 x202 +61 x203 +35 x204 +3 x205 +25 x206 +45 x207 +11 x208 +2 x209
      +35 x210 +22 x211 +97 x212 +59 x213 +59 x214 +63 x215 +20 x216 +76 x217 +26 x218 +40 x219 +74 x220
      +69 x221 +27 x222 +34 x223 +4 x224
Subject to
 c0: +1 x1 +1 x12 +1 x30 +1 x35 +1 x41 +1 x66 +1 x77 +1 x84 +1 x96 +1 x105 +1 x112 +1 x135 +1 x137 +1 x140
  +1 x162 +1 x170 +1 x178 +1 x183 +1 x184 +1 x200 +1 x215 >= +1
 c1: +1 x10 +1 x14 +1 x48 +1 x59 +1 x69 +1 x82 +1 x85 +1 x86 +1 x88 +1 x103 +1 x107 +1 x108 +1 x132 +1 x138
  +1 x149 +1 x151 +1 x161 +1 x163 +1 x174 +1 x182 +1 x188 +1 x202 +1 x209 >= +1
 c2: +1 x3 +1 x15 +1 x23 +1 x24 +1 x40 +1 x42 +1 x48 +1 x51 +1 x52 +1 x73 +1 x80 +1 x81 +1 x91 +1 x97
  +1 x110 +1 x111 +1 x118 +1 x119 +1 x127 +1 x139 +1 x173 +1 x178 +1 x179 +1 x188 +1 x195 +1 x198 >= +1
 c3: +1 x1 +1 x12 +1 x31 +1 x49 +1 x50 +1 x58 +1 x73 +1 x82 +1 x86 +1 x94 +1 x108 +1 x109 +1 x110 +1 x113
  +1 x133 +1 x136 +1 x139 +1 x145 +1 x150 +1 x157 +1 x166 +1 x178 +1 x203 +1 x207 >= +1
 c4: +1 x0 +1 x24 +1 x38 +1 x45 +1 x51 +1 x62 +1 x72 +1 x95 +1 x98 +1 x103 +1 x108 +1 x119 +1 x125 +1 x149
  +1 x174 +1 x178 +1 x179 +1 x183 +1 x186 +1 x192 >= +1
 c5: +1 x10 +1 x22 +1 x31 +1 x37 +1 x42 +1 x52 +1 x63 +1 x82 +1 x86 +1 x129 +1 x135 +1 x144 +1 x145 +1 x175
  +1 x179 +1 x181 +1 x184 +1 x186 +1 x200 >= +1
 c6: +1 x4 +1 x13 +1 x21 +1 x33 +1 x50 +1 x67 +1 x91 +1 x102 +1 x107 +1 x110 +1 x128 +1 x129 +1 x165 +1 x186
  +1 x190 +1 x207 +1 x216 +1 x218 >= +1
 c7: +1 x0 +1 x40 +1 x43 +1 x61 +1 x81 +1 x83 +1 x90 +1 x94 +1 x107 +1 x119 +1 x124 +1 x179 +1 x181 +1 x184
  +1 x187 +1 x195 +1 x212 +1 x214 >= +1
 c8: +1 x5 +1 x13 +1 x17 +1 x32 +1 x39 +1 x52 +1 x63 +1 x73 +1 x78 +1 x87 +1 x97 +1 x111 +1 x127 +1 x137
  +1 x144 +1 x147 +1 x155 +1 x161 +1 x178 +1 x182 +1 x201 +1 x214 +1 x219 >= +1
 c9: +1 x0 +1 x11 +1 x23 +1 x27 +1 x29 +1 x36 +1 x37 +1 x64 +1 x78 +1 x83 +1 x92 +1 x97 +1 x100 +1 x110
  +1 x112 +1 x117 +1 x119 +1 x121 +1 x124 +1 x128 +1 x137 +1 x146 +1 x164 +1 x167 +1 x177 +1 x196 +1 x200
  >= +1
 c10: +1 x7 +1 x11 +1 x19 +1 x20 +1 x23 +1 x44 +1 x47 +1 x53 +1 x60 +1 x74 +1 x82 +1 x88 +1 x104 +1 x112
  +1 x119 +1 x124 +1 x130 +1 x131 +1 x135 +1 x152 +1 x161 +1 x171 +1 x192 +1 x222 >= +1
 c11: +1 x4 +1 x15 +1 x22 +1 x24 +1 x42 +1 x47 +1 x50 +1 x51 +1 x55 +1 x57 +1 x59 +1 x61 +1 x64 +1 x72
  +1 x79 +1 x83 +1 x90 +1 x95 +1 x116 +1 x121 +1 x125 +1 x152 +1 x170 +1 x178 +1 x181 +1 x183 +1 x198
  +1 x201 +1 x206 +1 x212 +1 x218 >= +1
 c12: +1 x9 +1 x15 +1 x18 +1 x27 +1 x28 +1 x33 +1 x35 +1 x54 +1 x59 +1 x65 +1 x68 +1 x72 +1 x99 +1 x105
  +1 x112 +1 x115 +1 x116 +1 x119 +1 x122 +1 x136 +1 x142 +1 x172 +1 x189 +1 x191 +1 x193 +1 x212 +1 x221
  +1 x222 >= +1
 c13: +1 x10 +1 x15 +1 x19 +1 x30 +1 x42 +1 x45 +1 x50 +1 x56 +1 x64 +1 x89 +1 x92 +1 x93 +1 x105 +1 x107
  +1 x148 +1 x161 +1 x165 +1 x197 +1 x200 +1 x223 >= +1
 c14: +1 x0 +1 x10 +1 x15 +1 x54 +1 x72 +1 x82 +1 x102 +1 x107 +1 x118 +1 x130 +1 x131 +1 x133 +1 x171
  +1 x180 +1 x200 +1 x203 +1 x209 >= +1
 c15: +1 x6 +1 x15 +1 x17 +1 x25 +1 x31 +1 x42 +1 x57 +1 x68 +1 x75 +1 x78 +1 x85 +1 x87 +1 x88 +1 x102
  +1 x123 +1 x160 +1 x161 +1 x183 +1 x197 +1 x214 +1 x215 >= +1
 c16: +1 x8 +1 x15 +1 x16 +1 x20 +1 x32 +1 x33 +1 x38 +1 x53 +1 x55 +1 x56 +1 x85 +1 x87 +1 x91 +1 x107
  +1 x111 +1 x113 +1 x143 +1 x144 +1 x150 +1 x158 +1 x172 +1 x188 +1 x219 +1 x220 +1 x222 +1 x224 >= +1
 c17: +1 x8 +1 x16 +1 x17 +1 x41 +1 x48 +1 x50 +1 x78 +1 x96 +1 x102 +1 x113 +1 x118 +1 x120 +1 x129 +1 x142
  +1 x144 +1 x147 +1 x149 +1 x176 +1 x180 +1 x182 +1 x201 +1 x218 >= +1
 c18: +1 x10 +1 x27 +1 x52 +1 x62 +1 x81 +1 x87 +1 x95 +1 x97 +1 x98 +1 x118 +1 x126 +1 x132 +1 x136 +1 x138
  +1 x143 +1 x144 +1 x153 +1 x160 +1 x163 +1 x200 +1 x206 >= +1
 c19: +1 x5 +1 x22 +1 x28 +1 x39 +1 x45 +1 x46 +1 x50 +1 x61 +1 x62 +1 x68 +1 x82 +1 x91 +1 x101 +1 x111
  +1 x123 +1 x125 +1 x132 +1 x141 +1 x142 +1 x143 +1 x169 +1 x177 +1 x189 +1 x190 +1 x197 +1 x201 +1 x222
  >= +1
 c20: +1 x2 +1 x12 +1 x14 +1 x17 +1 x25 +1 x37 +1 x62 +1 x74 +1 x81 +1 x90 +1 x103 +1 x124 +1 x132 +1 x134
  +1 x142 +1 x157 +1 x168 +1 x184 +1 x185 +1 x210 >= +1
 c21: +1 x2 +1 x10 +1 x31 +1 x33 +1 x43 +1 x66 +1 x78 +1 x95 +1 x97 +1 x98 +1 x101 +1 x122 +1 x130 +1 x140
  +1 x146 +1 x172 +1 x173 +1 x204 >= +1
 c22: +1 x8 +1 x37 +1 x47 +1 x54 +1 x67 +1 x83 +1 x88 +1 x92 +1 x131 +1 x145 +1 x147 +1 x157 +1 x165 +1 x186
  +1 x192 +1 x194 +1 x207 +1 x215 +1 x221 >= +1
 c23: +1 x3 +1 x11 +1 x19 +1 x26 +1 x32 +1 x60 +1 x66 +1 x79 +1 x91 +1 x95 +1 x108 +1 x114 +1 x120 +1 x136
  +1 x143 +1 x148 +1 x150 +1 x153 +1 x154 +1 x155 +1 x164 +1 x170 +1 x176 +1 x181 +1 x194 +1 x205 >= +1
 c24: +1 x10 +1 x48 +1 x52 +1 x57 +1 x61 +1 x65 +1 x68 +1 x84 +1 x89 +1 x90 +1 x99 +1 x101 +1 x110 +1 x112
  +1 x117 +1 x136 +1 x163 +1 x168 +1 x179 >= +1
 c25: +1 x0 +1 x12 +1 x22 +1 x26 +1 x28 +1 x57 +1 x63 +1 x66 +1 x79 +1 x82 +1 x95 +1 x120 +1 x146 +1 x171
  +1 x172 +1 x176 +1 x181 +1 x187 +1 x191 +1 x195 +1 x196 +1 x199 +1 x202 +1 x213 +1 x216 >= +1
 c26: +1 x4 +1 x16 +1 x21 +1 x47 +1 x53 +1 x77 +1 x86 +1 x90 +1 x98 +1 x102 +1 x111 +1 x116 +1 x129 +1 x130
  +1 x132 +1 x133 +1 x161 +1 x170 +1 x175 +1 x177 +1 x183 +1 x184 +1 x189 +1 x198 +1 x205 +1 x217 >= +1
 c27: +1 x5 +1 x47 +1 x49 +1 x67 +1 x69 +1 x81 +1 x94 +1 x101 +1 x105 +1 x121 +1 x124 +1 x128 +1 x129
  +1 x133 +1 x136 +1 x143 +1 x146 +1 x157 +1 x158 +1 x181 +1 x185 +1 x187 +1 x191 +1 x194 +1 x209 +1 x221
  >= +1
 c28: +1 x2 +1 x12 +1 x27 +1 x34 +1 x35 +1 x44 +1 x63 +1 x70 +1 x76 +1 x122 +1 x128 +1 x129 +1 x130 +1 x137
  +1 x141 +1 x147 +1 x160 +1 x162 +1 x175 +1 x205 +1 x209 +1 x210 +1 x213 +1 x215 +1 x216 +1 x223 >= +1
 c29: +1 x6 +1 x24 +1 x27 +1 x30 +1 x36 +1 x39 +1 x42 +1 x61 +1 x64 +1 x70 +1 x108 +1 x128 +1 x156 +1 x176
  +1 x179 +1 x190 +1 x193 +1 x194 +1 x196 +1 x210 +1 x215 +1 x218 >= +1
 c30: +1 x4 +1 x33 +1 x36 +1 x43 +1 x44 +1 x55 +1 x62 +1 x96 +1 x103 +1 x113 +1 x131 +1 x138 +1 x142 +1 x156
  +1 x187 +1 x189 >= +1
 c31: +1 x7 +1 x22 +1 x40 +1 x47 +1 x52 +1 x75 +1 x92 +1 x95 +1 x103 +1 x136 +1 x145 +1 x164 +1 x166 +1 x181
  +1 x190 +1 x197 +1 x205 >= +1
 c32: +1 x10 +1 x25 +1 x29 +1 x61 +1 x67 +1 x79 +1 x81 +1 x97 +1 x177 +1 x187 +1 x188 +1 x194 +1 x201
  +1 x215 +1 x216 >= +1
 c33: +1 x10 +1 x15 +1 x21 +1 x27 +1 x37 +1 x47 +1 x57 +1 x101 +1 x106 +1 x146 +1 x153 +1 x163 +1 x179
  +1 x207 +1 x209 >= +1
 c34: +1 x9 +1 x14 +1 x15 +1 x18 +1 x24 +1 x35 +1 x52 +1 x58 +1 x81 +1 x110 +1 x166 +1 x170 +1 x173 +1 x176
  +1 x190 +1 x193 +1 x219 +1 x221 >= +1
 c35: +1 x3 +1 x17 +1 x20 +1 x38 +1 x41 +1 x66 +1 x68 +1 x75 +1 x78 +1 x91 +1 x93 +1 x97 +1 x99 +1 x104
  +1 x119 +1 x120 +1 x130 +1 x132 +1 x136 +1 x156 +1 x161 +1 x162 +1 x180 +1 x183 +1 x204 +1 x215 +1 x217
  >= +1
 c36: +1 x8 +1 x14 +1 x22 +1 x43 +1 x70 +1 x73 +1 x77 +1 x84 +1 x87 +1 x97 +1 x106 +1 x126 +1 x132 +1 x143
  +1 x147 +1 x153 +1 x159 +1 x170 +1 x179 +1 x181 +1 x182 +1 x186 +1 x188 +1 x189 +1 x197 +1 x201 +1 x202
  +1 x207 +1 x208 +1 x212 +1 x219 >= +1
 c37: +1 x0 +1 x23 +1 x39 +1 x42 +1 x56 +1 x69 +1 x73 +1 x82 +1 x85 +1 x90 +1 x96 +1 x106 +1 x137 +1 x138
  +1 x146 +1 x152 +1 x156 +1 x168 +1 x170 +1 x172 +1 x174 +1 x184 +1 x190 +1 x191 +1 x210 >= +1
 c38: +1 x3 +1 x15 +1 x28 +1 x34 +1 x35 +1 x42 +1 x66 +1 x70 +1 x93 +1 x95 +1 x113 +1 x118 +1 x140 +1 x147
  +1 x163 +1 x174 +1 x186 +1 x187 +1 x195 +1 x210 +1 x220 >= +1
 c39: +1 x1 +1 x42 +1 x47 +1 x55 +1 x59 +1 x64 +1 x72 +1 x103 +1 x105 +1 x107 +1 x108 +1 x116 +1 x126
  +1 x160 +1 x169 +1 x208 +1 x211 +1 x219 >= +1
 c40: +1 x6 +1 x22 +1 x30 +1 x33 +1 x37 +1 x40 +1 x56 +1 x62 +1 x64 +1 x65 +1 x81 +1 x90 +1 x97 +1 x132
  +1 x137 +1 x143 +1 x151 +1 x183 +1 x209 +1 x210 +1 x213 +1 x219 >= +1
 c41: +1 x8 +1 x13 +1 x32 +1 x59 +1 x86 +1 x92 +1 x102 +1 x140 +1 x178 +1 x187 +1 x194 +1 x197 +1 x202
  +1 x207 +1 x209 +1 x224 >= +1
 c42: +1 x0 +1 x51 +1 x72 +1 x89 +1 x122 +1 x137 +1 x138 +1 x142 +1 x143 +1 x149 +1 x153 +1 x155 +1 x158
  +1 x160 +1 x174 +1 x179 +1 x180 +1 x182 +1 x191 +1 x192 +1 x200 +1 x205 +1 x207 +1 x216 >= +1
 c43: +1 x3 +1 x21 +1 x26 +1 x27 +1 x43 +1 x44 +1 x46 +1 x49 +1 x62 +1 x90 +1 x93 +1 x95 +1 x100 +1 x111
  +1 x118 +1 x124 +1 x157 +1 x159 +1 x163 +1 x168 +1 x170 +1 x180 +1 x188 +1 x203 +1 x212 +1 x221 >= +1
 c44: +1 x9 +1 x14 +1 x17 +1 x59 +1 x60 +1 x61 +1 x70 +1 x77 +1 x86 +1 x95 +1 x106 +1 x107 +1 x119 +1 x120
  +1 x134 +1 x142 +1 x166 +1 x167 +1 x177 +1 x191 +1 x200 +1 x215 >= +1
 c45: +1 x10 +1 x11 +1 x12 +1 x50 +1 x63 +1 x77 +1 x80 +1 x88 +1 x108 +1 x110 +1 x111 +1 x127 +1 x189
  +1 x196 +1 x223 >= +1
 c46: +1 x1 +1 x13 +1 x19 +1 x32 +1 x34 +1 x50 +1 x61 +1 x67 +1 x68 +1 x81 +1 x86 +1 x97 +1 x109 +1 x143
  +1 x154 +1 x162 +1 x167 +1 x175 +1 x179 +1 x184 +1 x189 +1 x192 +1 x202 +1 x215 +1 x218 >= +1
 c47: +1 x3 +1 x52 +1 x53 +1 x54 +1 x59 +1 x78 +1 x99 +1 x100 +1 x102 +1 x107 +1 x119 +1 x133 +1 x140
  +1 x144 +1 x158 +1 x171 +1 x175 +1 x185 +1 x186 +1 x197 +1 x207 +1 x215 >= +1
 c48: +1 x9 +1 x11 +1 x15 +1 x32 +1 x40 +1 x41 +1 x45 +1 x57 +1 x67 +1 x73 +1 x105 +1 x109 +1 x117 +1 x131
  +1 x146 +1 x147 +1 x149 +1 x152 +1 x156 +1 x184 +1 x196 +1 x206 +1 x208 +1 x220 +1 x221 >= +1
 c49: +1 x0 +1 x27 +1 x37 +1 x38 +1 x49 +1 x73 +1 x104 +1 x115 +1 x116 +1 x122 +1 x123 +1 x132 +1 x136
  +1 x139 +1 x148 +1 x150 +1 x174 +1 x181 +1 x191 +1 x224 >= +1
 c50: +1 x6 +1 x21 +1 x23 +1 x33 +1 x53 +1 x54 +1 x62 +1 x87 +1 x90 +1 x99 +1 x121 +1 x132 +1 x133 +1 x148
  +1 x173 +1 x186 +1 x216 >= +1
 c51: +1 x4 +1 x14 +1 x25 +1 x35 +1 x36 +1 x47 +1 x48 +1 x50 +1 x57 +1 x59 +1 x65 +1 x74 +1 x76 +1 x113
  +1 x128 +1 x147 +1 x150 +1 x152 +1 x158 +1 x174 +1 x186 +1 x187 +1 x216 >= +1
 c52: +1 x3 +1 x18 +1 x39 +1 x49 +1 x51 +1 x63 +1 x73 +1 x84 +1 x92 +1 x115 +1 x121 +1 x141 +1 x142 +1 x144
  +1 x146 +1 x148 +1 x151 +1 x154 +1 x159 +1 x170 +1 x172 +1 x187 +1 x202 +1 x215 +1 x216 +1 x224 >= +1
 c53: +1 x5 +1 x16 +1 x20 +1 x28 +1 x36 +1 x44 +1 x50 +1 x57 +1 x70 +1 x72 +1 x75 +1 x77 +1 x78 +1 x83
  +1 x84 +1 x87 +1 x90 +1 x91 +1 x106 +1 x112 +1 x113 +1 x118 +1 x131 +1 x132 +1 x138 +1 x146 +1 x150
  +1 x151 +1 x152 +1 x162 +1 x178 +1 x192 +1 x199 +1 x218 >= +1
 c54: +1 x1 +1 x14 +1 x22 +1 x30 +1 x31 +1 x33 +1 x38 +1 x42 +1 x46 +1 x49 +1 x52 +1 x58 +1 x69 +1 x70
  +1 x75 +1 x79 +1 x86 +1 x100 +1 x116 +1 x119 +1 x124 +1 x128 +1 x136 +1 x139 +1 x141 +1 x152 +1 x155
  +1 x158 +1 x166 +1 x198 +1 x199 +1 x213 >= +1
 c55: +1 x1 +1 x15 +1 x20 +1 x22 +1 x24 +1 x71 +1 x75 +1 x90 +1 x104 +1 x114 +1 x117 +1 x144 +1 x150 +1 x166
  +1 x167 +1 x179 +1 x194 +1 x199 +1 x203 +1 x204 +1 x209 +1 x217 +1 x222 +1 x223 >= +1
 c56: +1 x3 +1 x11 +1 x21 +1 x31 +1 x55 +1 x62 +1 x85 +1 x87 +1 x95 +1 x100 +1 x104 +1 x106 +1 x123 +1 x127
  +1 x148 +1 x149 +1 x154 +1 x166 +1 x178 +1 x182 +1 x188 +1 x192 +1 x193 +1 x197 +1 x208 +1 x211 +1 x215
  >= +1
 c57: +1 x8 +1 x13 +1 x16 +1 x23 +1 x24 +1 x26 +1 x34 +1 x39 +1 x48 +1 x50 +1 x69 +1 x72 +1 x86 +1 x88
  +1 x99 +1 x108 +1 x143 +1 x145 +1 x153 +1 x173 +1 x178 +1 x180 +1 x191 +1 x196 +1 x197 +1 x204 +1 x210
  >= +1
 c58: +1 x4 +1 x13 +1 x16 +1 x29 +1 x31 +1 x42 +1 x48 +1 x63 +1 x73 +1 x81 +1 x90 +1 x91 +1 x146 +1 x168
  +1 x170 +1 x187 +1 x196 +1 x197 +1 x199 +1 x208 >= +1
 c59: +1 x7 +1 x14 +1 x22 +1 x45 +1 x46 +1 x56 +1 x64 +1 x71 +1 x79 +1 x86 +1 x93 +1 x97 +1 x119 +1 x124
  +1 x126 +1 x133 +1 x144 +1 x157 +1 x183 +1 x189 +1 x201 +1 x209 +1 x213 >= +1
 c60: +1 x6 +1 x18 +1 x24 +1 x31 +1 x36 +1 x67 +1 x70 +1 x75 +1 x88 +1 x90 +1 x92 +1 x97 +1 x113 +1 x139
  +1 x140 +1 x145 +1 x152 +1 x162 +1 x181 +1 x188 +1 x199 +1 x207 >= +1
 c61: +1 x7 +1 x13 +1 x14 +1 x15 +1 x34 +1 x44 +1 x47 +1 x51 +1 x66 +1 x69 +1 x89 +1 x101 +1 x105 +1 x110
  +1 x150 +1 x155 +1 x159 +1 x169 +1 x175 +1 x188 +1 x191 +1 x194 +1 x199 +1 x215 +1 x223 >= +1
 c62: +1 x1 +1 x16 +1 x23 +1 x27 +1 x66 +1 x80 +1 x97 +1 x117 +1 x120 +1 x134 +1 x140 +1 x141 +1 x146
  +1 x148 +1 x170 +1 x174 +1 x179 +1 x180 +1 x194 +1 x202 +1 x206 +1 x220 >= +1
 c63: +1 x5 +1 x40 +1 x41 +1 x49 +1 x51 +1 x52 +1 x53 +1 x54 +1 x61 +1 x64 +1 x66 +1 x80 +1 x89 +1 x92
  +1 x94 +1 x109 +1 x128 +1 x145 +1 x173 +1 x174 +1 x190 +1 x192 +1 x197 +1 x208 +1 x213 >= +1
 c64: +1 x9 +1 x11 +1 x17 +1 x29 +1 x60 +1 x69 +1 x77 +1 x79 +1 x94 +1 x103 +1 x105 +1 x135 +1 x149 +1 x164
  +1 x211 >= +1
 c65: +1 x5 +1 x11 +1 x20 +1 x23 +1 x37 +1 x60 +1 x64 +1 x66 +1 x68 +1 x74 +1 x75 +1 x80 +1 x82 +1 x92
  +1 x94 +1 x112 +1 x113 +1 x120 +1 x127 +1 x157 +1 x161 +1 x162 +1 x168 +1 x213 +1 x222 >= +1
 c66: +1 x4 +1 x12 +1 x38 +1 x40 +1 x55 +1 x73 +1 x76 +1 x82 +1 x88 +1 x98 +1 x114 +1 x115 +1 x117 +1 x122
  +1 x139 +1 x140 +1 x146 +1 x172 +1 x185 +1 x197 +1 x199 +1 x207 +1 x208 +1 x214 +1 x217 >= +1
 c67: +1 x8 +1 x29 +1 x36 +1 x62 +1 x64 +1 x99 +1 x100 +1 x112 +1 x113 +1 x128 +1 x130 +1 x132 +1 x143
  +1 x147 +1 x150 +1 x172 +1 x177 +1 x202 +1 x206 +1 x218 >= +1
 c68: +1 x6 +1 x16 +1 x24 +1 x28 +1 x31 +1 x38 +1 x54 +1 x72 +1 x81 +1 x103 +1 x116 +1 x139 +1 x142 +1 x149
  +1 x174 +1 x188 +1 x193 +1 x205 +1 x208 +1 x214 +1 x215 >= +1
 c69: +1 x4 +1 x11 +1 x24 +1 x37 +1 x55 +1 x63 +1 x75 +1 x78 +1 x89 +1 x92 +1 x99 +1 x102 +1 x105 +1 x111
  +1 x135 +1 x143 +1 x146 +1 x149 +1 x154 +1 x178 +1 x190 +1 x196 >= +1
 c70: +1 x2 +1 x10 +1 x14 +1 x19 +1 x30 +1 x34 +1 x38 +1 x49 +1 x82 +1 x88 +1 x89 +1 x104 +1 x124 +1 x129
  +1 x137 +1 x147 +1 x160 +1 x210 +1 x211 +1 x223 >= +1
 c71: +1 x6 +1 x13 +1 x15 +1 x29 +1 x38 +1 x76 +1 x78 +1 x81 +1 x148 +1 x152 +1 x175 +1 x177 +1 x178 +1 x189
  +1 x203 >= +1
 c72: +1 x10 +1 x13 +1 x19 +1 x43 +1 x54 +1 x60 +1 x61 +1 x65 +1 x82 +1 x84 +1 x92 +1 x94 +1 x104 +1 x114
  +1 x143 +1 x146 +1 x175 +1 x180 +1 x183 +1 x184 +1 x186 +1 x196 +1 x198 +1 x199 +1 x200 +1 x201 >= +1
 c73: +1 x7 +1 x40 +1 x55 +1 x75 +1 x76 +1 x83 +1 x85 +1 x101 +1 x143 +1 x199 +1 x220 >= +1
 c74: +1 x7 +1 x14 +1 x17 +1 x18 +1 x26 +1 x33 +1 x34 +1 x37 +1 x49 +1 x52 +1 x70 +1 x82 +1 x101 +1 x117
  +1 x127 +1 x128 +1 x129 +1 x162 +1 x163 +1 x198 +1 x211 +1 x215 +1 x224 >= +1
 c75: +1 x2 +1 x12 +1 x17 +1 x62 +1 x84 +1 x89 +1 x110 +1 x114 +1 x131 +1 x138 +1 x146 +1 x152 +1 x186
  +1 x191 +1 x203 +1 x207 +1 x209 +1 x215 >= +1
 c76: +1 x8 +1 x18 +1 x22 +1 x27 +1 x41 +1 x49 +1 x90 +1 x111 +1 x127 +1 x130 +1 x136 +1 x139 +1 x142
  +1 x148 +1 x165 +1 x168 +1 x175 +1 x208 >= +1
 c77: +1 x0 +1 x17 +1 x18 +1 x24 +1 x39 +1 x40 +1 x43 +1 x46 +1 x60 +1 x65 +1 x77 +1 x84 +1 x90 +1 x91
  +1 x127 +1 x130 +1 x142 +1 x163 +1 x167 +1 x174 +1 x179 +1 x192 +1 x199 +1 x202 +1 x217 +1 x223 +1 x224
  >= +1
 c78: +1 x0 +1 x12 +1 x26 +1 x33 +1 x36 +1 x39 +1 x59 +1 x65 +1 x75 +1 x81 +1 x86 +1 x88 +1 x89 +1 x91
  +1 x99 +1 x105 +1 x124 +1 x125 +1 x141 +1 x147 +1 x149 +1 x161 +1 x179 +1 x181 +1 x182 +1 x197 +1 x207
  +1 x208 +1 x210 +1 x222 +1 x223 >= +1
 c79: +1 x8 +1 x12 +1 x15 +1 x36 +1 x48 +1 x54 +1 x55 +1 x92 +1 x108 +1 x110 +1 x113 +1 x167 +1 x175 +1 x195
  +1 x206 +1 x214 >= +1
 c80: +1 x6 +1 x17 +1 x23 +1 x49 +1 x53 +1 x57 +1 x68 +1 x76 +1 x86 +1 x90 +1 x94 +1 x95 +1 x98 +1 x102
  +1 x104 +1 x125 +1 x132 +1 x136 +1 x143 +1 x169 +1 x177 +1 x185 +1 x200 +1 x209 +1 x216 >= +1
 c81: +1 x10 +1 x11 +1 x23 +1 x24 +1 x54 +1 x62 +1 x68 +1 x69 +1 x78 +1 x79 +1 x84 +1 x95 +1 x112 +1 x125
  +1 x134 +1 x139 +1 x173 +1 x180 +1 x184 +1 x212 +1 x216 >= +1
 c82: +1 x5 +1 x34 +1 x40 +1 x52 +1 x59 +1 x62 +1 x64 +1 x66 +1 x68 +1 x70 +1 x88 +1 x109 +1 x114 +1 x128
  +1 x132 +1 x140 +1 x148 +1 x151 +1 x157 +1 x163 +1 x165 +1 x169 +1 x174 +1 x181 +1 x205 +1 x207 +1 x215
  +1 x219 +1 x222 +1 x224 >= +1
 c83: +1 x1 +1 x15 +1 x32 +1 x54 +1 x62 +1 x82 +1 x96 +1 x98 +1 x99 +1 x111 +1 x119 +1 x121 +1 x122 +1 x125
  +1 x146 +1 x157 +1 x192 +1 x199 +1 x206 >= +1
 c84: +1 x10 +1 x12 +1 x25 +1 x32 +1 x33 +1 x37 +1 x50 +1 x71 +1 x73 +1 x122 +1 x123 +1 x139 +1 x142 +1 x148
  +1 x153 +1 x164 +1 x170 +1 x190 +1 x224 >= +1
 c85: +1 x0 +1 x21 +1 x25 +1 x33 +1 x34 +1 x38 +1 x39 +1 x49 +1 x63 +1 x68 +1 x108 +1 x126 +1 x135 +1 x167
  +1 x170 +1 x184 +1 x187 >= +1
 c86: +1 x1 +1 x28 +1 x34 +1 x58 +1 x59 +1 x60 +1 x65 +1 x74 +1 x101 +1 x109 +1 x114 +1 x119 +1 x132 +1 x146
  +1 x167 +1 x168 +1 x179 +1 x188 +1 x204 +1 x206 +1 x207 +1 x208 +1 x223 >= +1
 c87: +1 x2 +1 x11 +1 x13 +1 x21 +1 x23 +1 x28 +1 x29 +1 x30 +1 x34 +1 x47 +1 x52 +1 x56 +1 x61 +1 x72
  +1 x74 +1 x84 +1 x88 +1 x109 +1 x114 +1 x119 +1 x132 +1 x146 +1 x181 +1 x190 +1 x200 +1 x212 +1 x214
  +1 x224 >= +1
 c88: +1 x3 +1 x11 +1 x26 +1 x35 +1 x38 +1 x67 +1 x73 +1 x88 +1 x97 +1 x119 +1 x120 +1 x133 +1 x134 +1 x144
  +1 x173 +1 x194 +1 x202 +1 x209 +1 x217 >= +1
 c89: +1 x1 +1 x10 +1 x27 +1 x31 +1 x54 +1 x57 +1 x59 +1 x81 +1 x90 +1 x94 +1 x107 +1 x118 +1 x120 +1 x131
  +1 x140 +1 x143 +1 x156 +1 x157 +1 x184 +1 x197 +1 x210 >= +1
 c90: +1 x0 +1 x30 +1 x57 +1 x67 +1 x81 +1 x97 +1 x100 +1 x113 +1 x122 +1 x125 +1 x127 +1 x128 +1 x152
  +1 x175 +1 x197 +1 x205 +1 x211 >= +1
 c91: +1 x1 +1 x13 +1 x14 +1 x15 +1 x16 +1 x36 +1 x38 +1 x45 +1 x61 +1 x63 +1 x65 +1 x73 +1 x75 +1 x94
  +1 x96 +1 x97 +1 x109 +1 x116 +1 x117 +1 x124 +1 x133 +1 x134 +1 x169 +1 x173 +1 x182 +1 x186 +1 x202
  +1 x205 +1 x214 +1 x222 >= +1
 c92: +1 x6 +1 x17 +1 x31 +1 x44 +1 x57 +1 x59 +1 x60 +1 x64 +1 x67 +1 x68 +1 x85 +1 x88 +1 x99 +1 x107
  +1 x110 +1 x134 +1 x135 +1 x139 +1 x157 +1 x160 +1 x171 +1 x177 +1 x187 +1 x188 +1 x195 +1 x203 +1 x218
  +1 x220 >= +1
 c93: +1 x0 +1 x46 +1 x58 +1 x70 +1 x76 +1 x78 +1 x79 +1 x81 +1 x114 +1 x118 +1 x130 +1 x143 +1 x145 +1 x146
  +1 x148 +1 x169 +1 x176 +1 x177 +1 x180 +1 x197 +1 x205 +1 x212 >= +1
 c94: +1 x1 +1 x14 +1 x18 +1 x23 +1 x38 +1 x45 +1 x53 +1 x61 +1 x63 +1 x72 +1 x76 +1 x95 +1 x110 +1 x114
  +1 x120 +1 x126 +1 x130 +1 x134 +1 x155 +1 x165 +1 x168 +1 x169 +1 x179 +1 x184 +1 x203 +1 x212 +1 x214
  >= +1
 c95: +1 x1 +1 x20 +1 x29 +1 x31 +1 x39 +1 x43 +1 x45 +1 x46 +1 x80 +1 x83 +1 x94 +1 x96 +1 x104 +1 x108
  +1 x115 +1 x117 +1 x123 +1 x135 +1 x160 +1 x189 +1 x195 +1 x201 +1 x215 +1 x217 >= +1
 c96: +1 x0 +1 x17 +1 x35 +1 x39 +1 x41 +1 x60 +1 x65 +1 x74 +1 x90 +1 x103 +1 x118 +1 x122 +1 x128 +1 x142
  +1 x146 +1 x147 +1 x148 +1 x149 +1 x151 +1 x152 +1 x159 +1 x175 +1 x178 +1 x179 +1 x184 +1 x201 +1 x203
  +1 x218 +1 x219 >= +1
 c97: +1 x10 +1 x15 +1 x42 +1 x53 +1 x79 +1 x80 +1 x85 +1 x92 +1 x96 +1 x109 +1 x118 +1 x120 +1 x136 +1 x141
  +1 x161 +1 x166 +1 x191 >= +1
 c98: +1 x0 +1 x34 +1 x35 +1 x37 +1 x45 +1 x63 +1 x68 +1 x80 +1 x85 +1 x95 +1 x96 +1 x98 +1 x101 +1 x104
  +1 x111 +1 x114 +1 x122 +1 x137 +1 x144 +1 x152 +1 x157 +1 x159 +1 x170 +1 x172 +1 x183 +1 x185 +1 x190
  +1 x193 +1 x195 +1 x201 +1 x212 +1 x224 >= +1
 c99: +1 x0 +1 x28 +1 x36 +1 x43 +1 x44 +1 x68 +1 x99 +1 x115 +1 x118 +1 x134 +1 x140 +1 x141 +1 x177
  +1 x199 +1 x200 +1 x203 +1 x213 >= +1
 c100: +1 x6 +1 x34 +1 x48 +1 x61 +1 x63 +1 x75 +1 x86 +1 x92 +1 x95 +1 x101 +1 x104 +1 x109 +1 x117 +1 x121
  +1 x122 +1 x132 +1 x140 +1 x154 +1 x155 +1 x176 +1 x177 +1 x202 +1 x204 +1 x214 +1 x218 >= +1
 c101: +1 x6 +1 x16 +1 x23 +1 x24 +1 x33 +1 x58 +1 x68 +1 x81 +1 x83 +1 x131 +1 x135 +1 x140 +1 x160 +1 x164
  +1 x197 +1 x198 +1 x206 +1 x207 +1 x218 >= +1
 c102: +1 x2 +1 x12 +1 x14 +1 x26 +1 x28 +1 x38 +1 x39 +1 x42 +1 x53 +1 x83 +1 x85 +1 x90 +1 x109 +1 x130
  +1 x135 +1 x137 +1 x157 +1 x165 +1 x192 +1 x197 +1 x199 +1 x207 +1 x219 +1 x220 >= +1
 c103: +1 x3 +1 x12 +1 x18 +1 x22 +1 x50 +1 x57 +1 x65 +1 x84 +1 x108 +1 x117 +1 x131 +1 x135 +1 x136
  +1 x153 +1 x163 +1 x171 +1 x186 +1 x188 +1 x199 +1 x208 +1 x210 +1 x211 +1 x215 +1 x223 >= +1
 c104: +1 x4 +1 x25 +1 x26 +1 x29 +1 x39 +1 x57 +1 x63 +1 x67 +1 x70 +1 x73 +1 x75 +1 x85 +1 x92 +1 x102
  +1 x117 +1 x144 +1 x148 +1 x151 +1 x154 +1 x164 +1 x167 +1 x170 +1 x183 +1 x192 +1 x203 +1 x210 >= +1
 c105: +1 x1 +1 x51 +1 x54 +1 x82 +1 x91 +1 x128 +1 x135 +1 x136 +1 x150 +1 x160 +1 x163 +1 x182 +1 x208
  +1 x211 +1 x213 +1 x215 >= +1
 c106: +1 x8 +1 x20 +1 x29 +1 x38 +1 x65 +1 x87 +1 x91 +1 x105 +1 x116 +1 x119 +1 x135 +1 x157 +1 x175
  +1 x178 +1 x189 +1 x190 +1 x201 +1 x212 >= +1
 c107: +1 x2 +1 x12 +1 x21 +1 x24 +1 x28 +1 x39 +1 x44 +1 x59 +1 x75 +1 x91 +1 x104 +1 x109 +1 x112 +1 x127
  +1 x129 +1 x130 +1 x142 +1 x163 +1 x173 +1 x176 +1 x182 +1 x191 +1 x193 +1 x197 +1 x206 +1 x211 +1 x224
  >= +1
 c108: +1 x3 +1 x14 +1 x17 +1 x28 +1 x32 +1 x54 +1 x56 +1 x74 +1 x77 +1 x87 +1 x89 +1 x98 +1 x101 +1 x104
  +1 x146 +1 x163 +1 x166 +1 x187 +1 x190 +1 x196 +1 x197 +1 x209 +1 x213 +1 x223 >= +1
 c109: +1 x2 +1 x12 +1 x13 +1 x17 +1 x20 +1 x26 +1 x30 +1 x35 +1 x39 +1 x42 +1 x59 +1 x71 +1 x96 +1 x101
  +1 x118 +1 x120 +1 x135 +1 x148 +1 x163 +1 x173 +1 x176 +1 x183 +1 x184 +1 x214 >= +1
 c110: +1 x8 +1 x21 +1 x24 +1 x27 +1 x37 +1 x50 +1 x60 +1 x61 +1 x63 +1 x71 +1 x73 +1 x78 +1 x87 +1 x89
  +1 x91 +1 x93 +1 x97 +1 x143 +1 x145 +1 x165 +1 x195 +1 x221 >= +1
 c111: +1 x9 +1 x24 +1 x27 +1 x41 +1 x52 +1 x55 +1 x77 +1 x82 +1 x93 +1 x108 +1 x135 +1 x141 +1 x165 +1 x175
  +1 x183 +1 x184 +1 x220 >= +1
 c112: +1 x3 +1 x13 +1 x14 +1 x23 +1 x31 +1 x38 +1 x39 +1 x40 +1 x46 +1 x55 +1 x57 +1 x61 +1 x62 +1 x67
  +1 x68 +1 x75 +1 x80 +1 x107 +1 x110 +1 x111 +1 x126 +1 x131 +1 x132 +1 x184 +1 x208 +1 x216 +1 x218
  >= +1
 c113: +1 x5 +1 x10 +1 x22 +1 x27 +1 x36 +1 x37 +1 x49 +1 x72 +1 x73 +1 x77 +1 x92 +1 x93 +1 x103 +1 x110
  +1 x111 +1 x113 +1 x128 +1 x132 +1 x147 +1 x156 +1 x167 +1 x175 +1 x190 +1 x193 +1 x205 +1 x215 >= +1
 c114: +1 x2 +1 x15 +1 x24 +1 x27 +1 x35 +1 x44 +1 x69 +1 x74 +1 x98 +1 x102 +1 x120 +1 x128 +1 x136 +1 x143
  +1 x152 +1 x174 +1 x183 +1 x187 +1 x196 +1 x201 +1 x202 +1 x208 +1 x209 +1 x221 >= +1
 c115: +1 x9 +1 x13 +1 x21 +1 x22 +1 x32 +1 x43 +1 x47 +1 x56 +1 x69 +1 x70 +1 x111 +1 x117 +1 x164 +1 x171
  +1 x175 +1 x181 +1 x202 +1 x215 >= +1
 c116: +1 x7 +1 x34 +1 x37 +1 x50 +1 x70 +1 x81 +1 x83 +1 x87 +1 x88 +1 x91 +1 x101 +1 x102 +1 x113 +1 x120
  +1 x126 +1 x133 +1 x140 +1 x154 +1 x158 +1 x160 +1 x165 +1 x176 +1 x178 +1 x198 +1 x211 >= +1
 c117: +1 x5 +1 x12 +1 x29 +1 x32 +1 x51 +1 x72 +1 x78 +1 x84 +1 x101 +1 x128 +1 x146 +1 x154 +1 x156
  +1 x170 +1 x172 +1 x174 +1 x180 +1 x182 +1 x185 +1 x186 +1 x198 +1 x201 +1 x202 +1 x211 >= +1
 c118: +1 x6 +1 x17 +1 x24 +1 x41 +1 x50 +1 x58 +1 x70 +1 x75 +1 x85 +1 x91 +1 x92 +1 x93 +1 x95 +1 x101
  +1 x103 +1 x110 +1 x116 +1 x123 +1 x141 +1 x173 +1 x174 +1 x178 +1 x182 +1 x185 +1 x190 +1 x196 +1 x199
  +1 x208 +1 x221 >= +1
 c119: +1 x4 +1 x18 +1 x28 +1 x30 +1 x34 +1 x43 +1 x51 +1 x54 +1 x62 +1 x80 +1 x83 +1 x86 +1 x94 +1 x100
  +1 x105 +1 x108 +1 x112 +1 x119 +1 x138 +1 x141 +1 x151 +1 x159 +1 x163 +1 x178 +1 x189 +1 x194 +1 x211
  >= +1
 c120: +1 x5 +1 x12 +1 x24 +1 x25 +1 x34 +1 x48 +1 x97 +1 x113 +1 x120 +1 x139 +1 x145 +1 x155 +1 x157
  +1 x160 +1 x182 +1 x184 +1 x189 +1 x198 +1 x209 +1 x221 >= +1
 c121: +1 x5 +1 x15 +1 x17 +1 x28 +1 x57 +1 x60 +1 x68 +1 x70 +1 x90 +1 x91 +1 x95 +1 x101 +1 x102 +1 x108
  +1 x121 +1 x134 +1 x147 +1 x149 +1 x155 +1 x159 +1 x166 +1 x177 +1 x178 +1 x179 +1 x192 +1 x196 +1 x198
  +1 x201 +1 x211 >= +1
 c122: +1 x5 +1 x11 +1 x15 +1 x20 +1 x28 +1 x31 +1 x35 +1 x63 +1 x80 +1 x110 +1 x127 +1 x136 +1 x137 +1 x140
  +1 x144 +1 x154 +1 x156 +1 x180 +1 x191 +1 x200 +1 x205 +1 x208 +1 x215 >= +1
 c123: +1 x0 +1 x45 +1 x56 +1 x63 +1 x75 +1 x110 +1 x118 +1 x127 +1 x136 +1 x149 +1 x153 +1 x159 +1 x187
  +1 x190 +1 x221 >= +1
 c124: +1 x6 +1 x13 +1 x23 +1 x28 +1 x31 +1 x35 +1 x42 +1 x44 +1 x48 +1 x52 +1 x60 +1 x78 +1 x80 +1 x81
  +1 x84 +1 x127 +1 x134 +1 x145 +1 x155 +1 x165 +1 x179 +1 x194 +1 x197 +1 x219 >= +1
 c125: +1 x0 +1 x33 +1 x47 +1 x55 +1 x66 +1 x68 +1 x86 +1 x88 +1 x100 +1 x113 +1 x114 +1 x135 +1 x147
  +1 x149 +1 x169 +1 x175 +1 x180 +1 x193 +1 x195 +1 x215 >= +1
 c126: +1 x4 +1 x29 +1 x34 +1 x37 +1 x52 +1 x81 +1 x87 +1 x94 +1 x106 +1 x113 +1 x126 +1 x134 +1 x149
  +1 x152 +1 x159 +1 x162 +1 x178 +1 x190 +1 x196 +1 x214 >= +1
 c127: +1 x2 +1 x27 +1 x49 +1 x71 +1 x75 +1 x77 +1 x93 +1 x95 +1 x121 +1 x153 +1 x160 +1 x175 +1 x179
  +1 x183 +1 x186 +1 x198 +1 x199 +1 x221 >= +1
 c128: +1 x4 +1 x22 +1 x23 +1 x41 +1 x76 +1 x78 +1 x80 +1 x89 +1 x95 +1 x110 +1 x119 +1 x126 +1 x147 +1 x155
  +1 x170 +1 x202 +1 x217 >= +1
 c129: +1 x2 +1 x22 +1 x30 +1 x34 +1 x66 +1 x77 +1 x86 +1 x87 +1 x98 +1 x111 +1 x120 +1 x122 +1 x158 +1 x204
  +1 x210 >= +1
 c130: +1 x3 +1 x13 +1 x30 +1 x37 +1 x58 +1 x71 +1 x84 +1 x87 +1 x95 +1 x110 +1 x116 +1 x122 +1 x126 +1 x129
  +1 x151 +1 x165 +1 x168 +1 x182 +1 x184 +1 x187 +1 x216 +1 x222 +1 x224 >= +1
 c131: +1 x10 +1 x21 +1 x22 +1 x25 +1 x30 +1 x51 +1 x58 +1 x61 +1 x65 +1 x69 +1 x84 +1 x99 +1 x111 +1 x115
  +1 x132 +1 x145 +1 x151 +1 x155 +1 x173 +1 x174 +1 x177 +1 x182 >= +1
 c132: +1 x9 +1 x24 +1 x27 +1 x46 +1 x53 +1 x54 +1 x56 +1 x65 +1 x78 +1 x81 +1 x135 +1 x136 +1 x154 +1 x160
  +1 x180 +1 x201 +1 x217 >= +1
 c133: +1 x0 +1 x15 +1 x19 +1 x21 +1 x22 +1 x23 +1 x34 +1 x40 +1 x46 +1 x53 +1 x60 +1 x64 +1 x77 +1 x80
  +1 x91 +1 x97 +1 x106 +1 x114 +1 x115 +1 x122 +1 x126 +1 x127 +1 x133 +1 x135 +1 x146 +1 x154 +1 x168
  +1 x191 +1 x211 +1 x212 +1 x218 >= +1
 c134: +1 x5 +1 x33 +1 x45 +1 x51 +1 x58 +1 x62 +1 x67 +1 x90 +1 x93 +1 x100 +1 x102 +1 x109 +1 x154 +1 x167
  +1 x180 +1 x185 +1 x189 +1 x193 +1 x200 +1 x208 +1 x209 >= +1
 c135: +1 x9 +1 x36 +1 x50 +1 x67 +1 x68 +1 x75 +1 x83 +1 x97 +1 x112 +1 x119 +1 x131 +1 x150 +1 x157
  +1 x169 +1 x174 +1 x178 +1 x201 +1 x204 +1 x205 >= +1
 c136: +1 x9 +1 x31 +1 x47 +1 x61 +1 x73 +1 x122 +1 x125 +1 x131 +1 x142 +1 x166 +1 x173 +1 x181 +1 x185
  +1 x207 +1 x208 +1 x217 +1 x220 >= +1
 c137: +1 x8 +1 x10 +1 x11 +1 x12 +1 x16 +1 x24 +1 x39 +1 x42 +1 x68 +1 x75 +1 x81 +1 x85 +1 x91 +1 x92
  +1 x96 +1 x123 +1 x149 +1 x154 +1 x162 +1 x182 +1 x188 +1 x205 +1 x214 >= +1
 c138: +1 x0 +1 x16 +1 x27 +1 x29 +1 x30 +1 x31 +1 x32 +1 x33 +1 x42 +1 x57 +1 x109 +1 x120 +1 x141 +1 x149
  +1 x159 +1 x186 +1 x201 +1 x202 +1 x216 +1 x219 +1 x223 +1 x224 >= +1
 c139: +1 x7 +1 x17 +1 x25 +1 x32 +1 x57 +1 x64 +1 x85 +1 x92 +1 x96 +1 x121 +1 x131 +1 x135 +1 x145 +1 x153
  +1 x155 +1 x160 +1 x176 +1 x192 +1 x201 +1 x205 +1 x206 +1 x207 +1 x209 +1 x215 +1 x217 >= +1
 c140: +1 x4 +1 x14 +1 x27 +1 x28 +1 x32 +1 x35 +1 x43 +1 x71 +1 x79 +1 x91 +1 x119 +1 x128 +1 x131 +1 x145
  +1 x152 +1 x156 +1 x159 +1 x174 +1 x183 +1 x187 +1 x188 +1 x204 +1 x212 +1 x222 >= +1
 c141: +1 x1 +1 x14 +1 x30 +1 x34 +1 x40 +1 x55 +1 x68 +1 x69 +1 x70 +1 x71 +1 x85 +1 x93 +1 x101 +1 x118
  +1 x121 +1 x122 +1 x163 +1 x171 +1 x176 +1 x180 +1 x189 +1 x198 +1 x199 +1 x206 +1 x214 >= +1
 c142: +1 x8 +1 x19 +1 x23 +1 x33 +1 x35 +1 x36 +1 x42 +1 x57 +1 x60 +1 x65 +1 x80 +1 x89 +1 x99 +1 x105
  +1 x106 +1 x111 +1 x112 +1 x115 +1 x123 +1 x124 +1 x130 +1 x159 +1 x206 +1 x216 +1 x221 >= +1
 c143: +1 x10 +1 x28 +1 x41 +1 x44 +1 x47 +1 x79 +1 x111 +1 x114 +1 x127 +1 x129 +1 x134 +1 x141 +1 x155
  +1 x167 +1 x193 +1 x199 +1 x206 +1 x207 >= +1
 c144: +1 x2 +1 x16 +1 x19 +1 x45 +1 x47 +1 x67 +1 x95 +1 x111 +1 x131 +1 x140 +1 x144 +1 x156 +1 x186
  +1 x192 +1 x198 +1 x202 +1 x209 +1 x211 +1 x214 +1 x218 >= +1
 c145: +1 x0 +1 x23 +1 x40 +1 x53 +1 x60 +1 x66 +1 x68 +1 x69 +1 x135 +1 x142 +1 x149 +1 x150 +1 x152
  +1 x157 +1 x158 +1 x159 +1 x185 +1 x190 +1 x195 +1 x204 +1 x208 +1 x216 +1 x217 >= +1
 c146: +1 x8 +1 x12 +1 x20 +1 x48 +1 x54 +1 x64 +1 x69 +1 x77 +1 x80 +1 x89 +1 x95 +1 x102 +1 x115 +1 x140
  +1 x151 +1 x153 +1 x155 +1 x156 +1 x178 +1 x179 +1 x192 +1 x201 +1 x210 +1 x213 >= +1
 c147: +1 x3 +1 x13 +1 x27 +1 x33 +1 x43 +1 x48 +1 x63 +1 x75 +1 x99 +1 x100 +1 x112 +1 x122 +1 x123 +1 x126
  +1 x140 +1 x152 +1 x153 +1 x167 +1 x176 +1 x182 +1 x190 +1 x202 +1 x203 >= +1
 c148: +1 x3 +1 x10 +1 x22 +1 x37 +1 x47 +1 x48 +1 x62 +1 x63 +1 x64 +1 x87 +1 x90 +1 x98 +1 x100 +1 x114
  +1 x132 +1 x133 +1 x138 +1 x143 +1 x146 +1 x164 +1 x167 +1 x173 +1 x180 +1 x183 +1 x184 +1 x191 +1 x198
  +1 x215 >= +1
 c149: +1 x1 +1 x10 +1 x13 +1 x21 +1 x25 +1 x33 +1 x43 +1 x44 +1 x47 +1 x58 +1 x64 +1 x77 +1 x85 +1 x88
  +1 x91 +1 x92 +1 x93 +1 x98 +1 x105 +1 x116 +1 x124 +1 x133 +1 x136 +1 x144 +1 x148 +1 x154 +1 x160
  +1 x201 +1 x207 +1 x210 >= +1
Bounds
 0 <= x0 <= 1
 0 <= x1 <= 1
 0 <= x2 <= 1
 0 <= x3 <= 1
 0 <= x4 <= 1
 0 <= x5 <= 1
 0 <= x6 <= 1
 0 <= x7 <= 1
 0 <= x8 <= 1
 0 <= x9 <= 1
 0 <= x10 <= 1
 0 <= x11 <= 1
 0 <= x12 <= 1
 0 <= x13 <= 1
 0 <= x14 <= 1
 0 <= x15 <= 1
 0 <= x16 <= 1
 0 <= x17 <= 1
 0 <= x18 <= 1
 0 <= x19 <= 1
 0 <= x20 <= 1
 0 <= x21 <= 1
 0 <= x22 <= 1
 0 <= x23 <= 1
 0 <= x24 <= 1
 0 <= x25 <= 1
 0 <= x26 <= 1
 0 <= x27 <= 1
 0 <= x28 <= 1
 0 <= x29 <= 1
 0 <= x30 <= 1
 0 <= x31 <= 1
 0 <= x32 <= 1
 0 <= x33 <= 1
 0 <= x34 <= 1
 0 <= x35 <= 1
 0 <= x36 <= 1
 0 <= x37 <= 1
 0 <= x38 <= 1
 0 <= x39 <= 1
 0 <= x40 <= 1
 0 <= x41 <= 1
 0 <= x42 <= 1
 0 <= x43 <= 1
 0 <= x44 <= 1
 0 <= x45 <= 1
 0 <= x46 <= 1
 0 <= x47 <= 1
 0 <= x48 <= 1
 0 <= x49 <= 1
 0 <= x50 <= 1
 0 <= x51 <= 1
 0 <= x52 <= 1
 0 <= x53 <= 1
 0 <= x54 <= 1
 0 <= x55 <= 1
 0 <= x56 <= 1
 0 <= x57 <= 1
 0 <= x58 <= 1
 0 <= x59 <= 1
 0 <= x60 <= 1
 0 <= x61 <= 1
 0 <= x62 <= 1
 0 <= x63 <= 1
 0 <= x64 <= 1
 0 <= x65 <= 1
 0 <= x66 <= 1
 0 <= x67 <= 1
 0 <= x68 <= 1
 0 <= x69 <= 1
 0 <= x70 <= 1
 0 <= x71 <= 1
 0 <= x72 <= 1
 0 <= x73 <= 1
 0 <= x74 <= 1
 0 <= x75 <= 1
 0 <= x76 <= 1
 0 <= x77 <= 1
 0 <= x78 <= 1
 0 <= x79 <= 1
 0 <= x80 <= 1
 0 <= x81 <= 1
 0 <= x82 <= 1
 0 <= x83 <= 1
 0 <= x84 <= 1
 0 <= x85 <= 1
 0 <= x86 <= 1
 0 <= x87 <= 1
 0 <= x88 <= 1
 0 <= x89 <= 1
 0 <= x90 <= 1
 0 <= x91 <= 1
 0 <= x92 <= 1
 0 <= x93 <= 1
 0 <= x94 <= 1
 0 <= x95 <= 1
 0 <= x96 <= 1
 0 <= x97 <= 1
 0 <= x98 <= 1
 0 <= x99 <= 1
 0 <= x100 <= 1
 0 <= x101 <= 1
 0 <= x102 <= 1
 0 <= x103 <= 1
 0 <= x104 <= 1
 0 <= x105 <= 1
 0 <= x106 <= 1
 0 <= x107 <= 1
 0 <= x108 <= 1
 0 <= x109 <= 1
 0 <= x110 <= 1
 0 <= x111 <= 1
 0 <= x112 <= 1
 0 <= x113 <= 1
 0 <= x114 <= 1
 0 <= x115 <= 1
 0 <= x116 <= 1
 0 <= x117 <= 1
 0 <= x118 <= 1
 0 <= x119 <= 1
 0 <= x120 <= 1
 0 <= x121 <= 1
 0 <= x122 <= 1
 0 <= x123 <= 1
 0 <= x124 <= 1
 0 <= x125 <= 1
 0 <= x126 <= 1
 0 <= x127 <= 1
 0 <= x128 <= 1
 0 <= x129 <= 1
 0 <= x130 <= 1
 0 <= x131 <= 1
 0 <= x132 <= 1
 0 <= x133 <= 1
 0 <= x134 <= 1
 0 <= x135 <= 1
 0 <= x136 <= 1
 0 <= x137 <= 1
 0 <= x138 <= 1
 0 <= x139 <= 1
 0 <= x140 <= 1
 0 <= x141 <= 1
 0 <= x142 <= 1
 0 <= x143 <= 1
 0 <= x144 <= 1
 0 <= x145 <= 1
 0 <= x146 <= 1
 0 <= x147 <= 1
 0 <= x148 <= 1
 0 <= x149 <= 1
 0 <= x150 <= 1
 0 <= x151 <= 1
 0 <= x152 <= 1
 0 <= x153 <= 1
 0 <= x154 <= 1
 0 <= x155 <= 1
 0 <= x156 <= 1
 0 <= x157 <= 1
 0 <= x158 <= 1
 0 <= x159 <= 1
 0 <= x160 <= 1
 0 <= x161 <= 1
 0 <= x162 <= 1
 0 <= x163 <= 1
 0 <= x164 <= 1
 0 <= x165 <= 1
 0 <= x166 <= 1
 0 <= x167 <= 1
 0 <= x168 <= 1
 0 <= x169 <= 1
 0 <= x170 <= 1
 0 <= x171 <= 1
 0 <= x172 <= 1
 0 <= x173 <= 1
 0 <= x174 <= 1
 0 <= x175 <= 1
 0 <= x176 <= 1
 0 <= x177 <= 1
 0 <= x178 <= 1
 0 <= x179 <= 1
 0 <= x180 <= 1
 0 <= x181 <= 1
 0 <= x182 <= 1
 0 <= x183 <= 1
 0 <= x184 <= 1
 0 <= x185 <= 1
 0 <= x186 <= 1
 0 <= x187 <= 1
 0 <= x188 <= 1
 0 <= x189 <= 1
 0 <= x190 <= 1
 0 <= x191 <= 1
 0 <= x192 <= 1
 0 <= x193 <= 1
 0 <= x194 <= 1
 0 <= x195 <= 1
 0 <= x196 <= 1
 0 <= x197 <= 1
 0 <= x198 <= 1
 0 <= x199 <= 1
 0 <= x200 <= 1
 0 <= x201 <= 1
 0 <= x202 <= 1
 0 <= x203 <= 1
 0 <= x204 <= 1
 0 <= x205 <= 1
 0 <= x206 <= 1
 0 <= x207 <= 1
 0 <= x208 <= 1
 0 <= x209 <= 1
 0 <= x210 <= 1
 0 <= x211 <= 1
 0 <= x212 <= 1
 0 <= x213 <= 1
 0 <= x214 <= 1
 0 <= x215 <= 1
 0 <= x216 <= 1
 0 <= x217 <= 1
 0 <= x218 <= 1
 0 <= x219 <= 1
 0 <= x220 <= 1
 0 <= x221 <= 1
 0 <= x222 <= 1
 0 <= x223 <= 1
 0 <= x224 <= 1
Binaries
 x0 x1 x2 x3 x4 x5 x6 x7 x8 x9 x10 x11 x12 x13 x14 x15 x16 x17 x18 x19 x20 x21 x22 x23 x24 x25 x26 x27
 x28 x29 x30 x31 x32 x33 x34 x35 x36 x37 x38 x39 x40 x41 x42 x43 x44 x45 x46 x47 x48 x49 x50 x51 x52 x53
 x54 x55 x56 x57 x58 x59 x60 x61 x62 x63 x64 x65 x66 x67 x68 x69 x70 x71 x72 x73 x74 x75 x76 x77 x78 x79
 x80 x81 x82 x83 x84 x85 x86 x87 x88 x89 x90 x91 x92 x93 x94 x95 x96 x97 x98 x99 x100 x101 x102 x103 x104
 x105 x106 x107 x108 x109 x110 x111 x112 x113 x114 x115 x116 x117 x118 x119 x120 x121 x122 x123 x124 x125
 x126 x127 x128 x129 x130 x131 x132 x133 x134 x135 x136 x137 x138 x139 x140 x141 x142 x143 x144 x145 x146
 x147 x148 x149 x150 x151 x152 x153 x154 x155 x156 x157 x158 x159 x160 x161 x162 x163 x164 x165 x166 x167
 x168 x169 x170 x171 x172 x173 x174 x175 x176 x177 x178 x179 x180 x181 x182 x183 x184 x185 x186 x187 x188
 x189 x190 x191 x192 x193 x194 x195 x196 x197 x198 x199 x200 x201 x202 x203 x204 x205 x206 x207 x208 x209
 x210 x211 x212 x213 x214 x215 x216 x217 x218 x219 x220 x221 x222 x223 x224
End
